Solving original (integer) problem with strategy gdp.hull_exact...
--- Job model.gms Start 02/16/26 12:40:41 52.2.0 d8e408be LEX-LEG x86 64bit/Linux
--- Applying:
    /package/gams/52.2/gmsprmun.txt
--- GAMS Parameters defined
    Input /local/scratch/a/sgusev/repos/k_means/data/gams_scip_gdp.hull_exact/no_mode/2026-02-16_12-40-40/original/model.gms
    Output /local/scratch/a/sgusev/repos/k_means/data/gams_scip_gdp.hull_exact/no_mode/2026-02-16_12-40-40/original/output.lst
    ScrDir /local/scratch/a/sgusev/repos/k_means/data/gams_scip_gdp.hull_exact/no_mode/2026-02-16_12-40-40/original/225a/
    SysDir /package/gams/52.2/
    CurDir /local/scratch/a/sgusev/repos/k_means/data/gams_scip_gdp.hull_exact/no_mode/2026-02-16_12-40-40/original/
    LogOption 3
    AppendLog 1
Licensee: David Bernal / SECQUOIA Research Group         G251008+0003Ac-GEN
          Purdue University, Davidson School of Chemical EngineeringDCE4838
          225a/gamslice.dat
          5a82958a-fbca-4a23
          node:66820903 mem:995 cores:48 ipport:44485 v:2                  
          Evaluation license: Not for commercial or production use
          The time-limited license stops working on : Jun 30, 2027
System information: 48 physical cores and 995 Gb physical memory detected
GAMS 52.2.0   Copyright (C) 1987-2025 GAMS Development. All rights reserved
--- Starting compilation
--- model.gms(5053) 2 Mb
--- $echo File /local/scratch/a/sgusev/repos/k_means/data/gams_scip_gdp.hull_exact/no_mode/2026-02-16_12-40-40/original/scip.opt
--- model.gms(7371) 2 Mb
--- Starting execution: elapsed 0:00:00.025
--- model.gms(5063) 3 Mb
--- Generating MINLP model GAMS_MODEL
--- model.gms(5067) 6 Mb
---   1,544 rows  707 columns  3,731 non-zeroes
---   2,352 nl-code  392 nl-non-zeroes
---   56 discrete-columns
--- Range statistics (absolute non-zero finite values)
--- RHS       [min, max] : [ 1.000E+00, 1.000E+00] - Zero values observed as well
--- Bound     [min, max] : [ 1.000E+00, 1.400E+02] - Zero values observed as well
--- Matrix    [min, max] : [ 1.000E+00, 1.400E+02] - Zero values observed as well
--- model.gms(5067) 4 Mb
--- Executing SCIP (Solvelink=5): elapsed 0:00:00.034

SCIP             52.2.0 d8e408be Dec 8, 2025           LEG x86 64bit/Linux    
SCIP version 9.2.4 (a94f778ac8)
Copyright (c) 2002-2025 Zuse Institute Berlin (ZIB)

External libraries: 
  CPLEX 22.1.2.0       Linear Programming Solver developed by IBM (www.cplex.com)
  CppAD 20180000.0     Algorithmic Differentiation of C++ algorithms developed by B. Bell (github.com/coin-or/CppAD)
  PaPILO 2.4.4         parallel presolve for integer and linear optimization (github.com/scipopt/papilo) (built with TBB) [GitHash: 7c826d50]
  Nauty 2.8.9          Computing Graph Automorphism Groups by Brendan D. McKay (users.cecs.anu.edu.au/~bdm/nauty)
  sassy 1.1            Symmetry preprocessor by Markus Anders (github.com/markusa4/sassy)
  Ipopt 3.14.19        Interior Point Optimizer developed by A. Waechter et.al. (github.com/coin-or/Ipopt)

reading option file /local/scratch/a/sgusev/repos/k_means/data/gams_scip_gdp.hull_exact/no_mode/2026-02-16_12-40-40/original/scip.opt
non-default parameter settings:
limits/time = 300
limits/gap = 1e-06
limits/absgap = 1e-10
lp/threads = 1
misc/printreason = FALSE
numerics/dualfeastol = 1e-06
parallel/maxnthreads = 1
nlpi/ipopt/linear_solver = "ma27"
nlpi/ipopt/linear_system_scaling = "mc19"

original problem has 706 variables (56 bin, 0 int, 650 cont) and 1543 constraints

all 1 solutions given by solution candidate storage are infeasible

presolving:
(round 1, fast)       14 del vars, 0 del conss, 0 add conss, 0 chg bounds, 0 chg sides, 0 chg coeffs, 0 upgd conss, 0 impls, 14 clqs
(round 2, fast)       14 del vars, 0 del conss, 0 add conss, 0 chg bounds, 14 chg sides, 0 chg coeffs, 0 upgd conss, 0 impls, 14 clqs
(round 3, exhaustive) 14 del vars, 0 del conss, 0 add conss, 0 chg bounds, 14 chg sides, 0 chg coeffs, 1190 upgd conss, 0 impls, 14 clqs
   (0.0s) probing cycle finished: starting next cycle
   (0.0s) symmetry computation started: requiring (bin +, int +, cont +), (fixed: bin -, int -, cont -)
   (0.0s) no symmetry present (symcode time: 0.00)
presolving (4 rounds: 4 fast, 2 medium, 2 exhaustive):
 14 deleted vars, 0 deleted constraints, 0 added constraints, 0 tightened bounds, 0 added holes, 14 changed sides, 0 changed coefficients
 3024 implications, 14 cliques
presolved problem has 692 variables (56 bin, 0 int, 0 impl, 636 cont) and 1543 constraints
   1176 constraints of type <varbound>
     14 constraints of type <setppc>
    297 constraints of type <linear>
     56 constraints of type <nonlinear>
Presolving Time: 0.04

 time | node  | left  |LP iter|LP it/n|mem/heur|mdpt |vars |cons |rows |cuts |sepa|confs|strbr|  dualbound   | primalbound  |  gap   | compl. 
  0.1s|     1 |     0 |   960 |     - |    17M |   0 |1364 |1543 |2439 |   0 |  0 |   0 |   0 | 0.000000e+00 |      --      |    Inf | unknown
p 0.2s|     1 |     0 |  1382 |     - |  clique|   0 |1364 |1543 |2439 |   0 |  0 |   0 |   0 | 0.000000e+00 | 2.262660e+01 |    Inf | unknown
  0.2s|     1 |     0 |  1680 |     - |    19M |   0 |1364 |1543 |2569 | 130 |  1 |   0 |   0 | 0.000000e+00 | 2.262660e+01 |    Inf | unknown
  0.2s|     1 |     0 |  1680 |     - |    19M |   0 |1364 |1543 |2555 | 130 |  1 |   0 |   0 | 0.000000e+00 | 2.262660e+01 |    Inf | unknown
  0.2s|     1 |     0 |  1971 |     - |    20M |   0 |1364 |1543 |2690 | 265 |  2 |   0 |   0 | 0.000000e+00 | 2.262660e+01 |    Inf | unknown
  0.3s|     1 |     0 |  2271 |     - |    20M |   0 |1364 |1543 |2810 | 385 |  3 |   0 |   0 | 0.000000e+00 | 2.262660e+01 |    Inf | unknown
  0.3s|     1 |     0 |  2494 |     - |    21M |   0 |1364 |1543 |2937 | 512 |  4 |   0 |   0 | 0.000000e+00 | 2.262660e+01 |    Inf | unknown
  0.4s|     1 |     0 |  2731 |     - |    21M |   0 |1364 |1543 |3061 | 636 |  5 |   0 |   0 | 0.000000e+00 | 2.262660e+01 |    Inf | unknown
  0.4s|     1 |     0 |  2929 |     - |    22M |   0 |1364 |1543 |3174 | 749 |  6 |   0 |   0 | 0.000000e+00 | 2.262660e+01 |    Inf | unknown
  0.5s|     1 |     0 |  3168 |     - |    22M |   0 |1364 |1543 |3275 | 850 |  7 |   0 |   0 | 0.000000e+00 | 2.262660e+01 |    Inf | unknown
  0.5s|     1 |     0 |  3360 |     - |    23M |   0 |1364 |1543 |3384 | 959 |  8 |   0 |   0 | 0.000000e+00 | 2.262660e+01 |    Inf | unknown
  0.6s|     1 |     0 |  3536 |     - |    23M |   0 |1364 |1543 |3483 |1058 |  9 |   0 |   0 | 0.000000e+00 | 2.262660e+01 |    Inf | unknown
  0.7s|     1 |     0 |  3708 |     - |    24M |   0 |1364 |1543 |3578 |1153 | 10 |   0 |   0 | 0.000000e+00 | 2.262660e+01 |    Inf | unknown
  0.8s|     1 |     0 |  3873 |     - |    24M |   0 |1364 |1543 |3668 |1243 | 11 |   0 |   0 | 0.000000e+00 | 2.262660e+01 |    Inf | unknown
  0.8s|     1 |     0 |  4064 |     - |    25M |   0 |1364 |1543 |3754 |1329 | 12 |   0 |   0 | 0.000000e+00 | 2.262660e+01 |    Inf | unknown
 time | node  | left  |LP iter|LP it/n|mem/heur|mdpt |vars |cons |rows |cuts |sepa|confs|strbr|  dualbound   | primalbound  |  gap   | compl. 
r 4.3s|     1 |     0 | 18244 |     - |intshift|   0 |1364 |1529 |3754 |1329 | 12 |   0 |   0 | 0.000000e+00 | 2.045311e+01 |    Inf | unknown
d 4.9s|     1 |     0 | 18244 |     - |    mpec|   0 |1364 |1529 |3754 |1329 | 12 |   0 |   0 | 0.000000e+00 | 2.006853e+01 |    Inf | unknown
  4.9s|     1 |     0 | 18244 |     - |    26M |   0 |1364 |1529 |3754 |1329 | 12 |   0 |   0 | 0.000000e+00 | 2.006853e+01 |    Inf | unknown
  5.0s|     1 |     0 | 18429 |     - |    26M |   0 |1364 |1529 |3832 |1407 | 13 |   0 |   0 | 0.000000e+00 | 2.006853e+01 |    Inf | unknown
  5.0s|     1 |     0 | 18488 |     - |    26M |   0 |1364 |1529 |2784 |1433 | 14 |   0 |   0 | 0.000000e+00 | 2.006853e+01 |    Inf | unknown
  5.7s|     1 |     2 | 18488 |     - |    26M |   0 |1364 |1529 |2784 |1433 | 14 |   0 |  34 | 0.000000e+00 | 2.006853e+01 |    Inf | unknown
d 6.0s|     8 |     9 | 21894 |2553.4 |pscostdi|   7 |1364 |1529 |2816 |2758 |  6 |   0 |  54 | 0.000000e+00 | 1.804558e+01 |    Inf | unknown
d 6.2s|    13 |    14 | 24550 |1710.8 |adaptive|   7 |1364 |1529 |2805 |3803 |  7 |   0 |  54 | 0.000000e+00 | 1.712314e+01 |    Inf | unknown
d 6.9s|    25 |    26 | 30058 |1084.9 |nlpdivin|   9 |1364 |1529 |2969 |   0 |  6 |   0 |  67 | 0.000000e+00 | 1.492795e+01 |    Inf | unknown
o 7.6s|    41 |    42 | 38383 | 859.1 |objpscos|  11 |1364 |1529 |3020 |8842 | 11 |   0 | 100 | 0.000000e+00 | 1.443904e+01 |    Inf | unknown
  9.4s|   100 |   101 | 61623 | 581.8 |    41M |  13 |1364 |1529 |3027 |  18k|  8 |   0 | 199 | 0.000000e+00 | 1.443904e+01 |    Inf | unknown
L10.8s|   141 |   142 | 85054 | 578.8 |    gins|  14 |1364 |1529 |3015 |  26k|  8 |   0 | 211 | 0.000000e+00 | 1.392195e+01 |    Inf | unknown
 13.0s|   200 |   201 |119221 | 578.9 |    60M |  14 |1364 |1529 |3072 |  37k|  6 |   0 | 215 | 0.000000e+00 | 1.392195e+01 |    Inf | unknown
L14.3s|   241 |   242 |137689 | 557.0 |    gins|  18 |1364 |1529 |2970 |  43k|  3 |   0 | 223 | 0.000000e+00 | 1.351780e+01 |    Inf | unknown
 16.4s|   300 |   301 |171370 | 559.7 |    73M |  18 |1364 |1529 |3012 |  52k|  9 |   0 | 225 | 0.000000e+00 | 1.351780e+01 |    Inf | unknown
 time | node  | left  |LP iter|LP it/n|mem/heur|mdpt |vars |cons |rows |cuts |sepa|confs|strbr|  dualbound   | primalbound  |  gap   | compl. 
L17.8s|   341 |   342 |194341 | 559.8 |    gins|  18 |1364 |1529 |2800 |  58k|  2 |   0 | 230 | 0.000000e+00 | 1.290626e+01 |    Inf | unknown
 19.6s|   400 |   401 |223206 | 549.3 |    91M |  18 |1364 |1529 |2853 |  67k|  2 |   0 | 244 | 0.000000e+00 | 1.290626e+01 |    Inf | unknown
L20.7s|   441 |   442 |241253 | 539.2 |    gins|  19 |1364 |1529 |3293 |  74k|  8 |   0 | 245 | 0.000000e+00 | 1.268065e+01 |    Inf | unknown
 22.4s|   500 |   501 |270373 | 533.8 |   102M |  19 |1364 |1529 |3084 |  83k|  6 |   0 | 246 | 0.000000e+00 | 1.268065e+01 |    Inf | unknown
 25.1s|   600 |   601 |315926 | 520.7 |   112M |  21 |1364 |1529 |3096 |  98k|  7 |   0 | 251 | 0.000000e+00 | 1.268065e+01 |    Inf | unknown
 28.3s|   700 |   701 |364664 | 515.9 |   125M |  21 |1364 |1529 |2713 | 116k|  2 |   0 | 259 | 0.000000e+00 | 1.268065e+01 |    Inf | unknown
 31.5s|   800 |   801 |413177 | 512.1 |   132M |  21 |1364 |1529 |3143 | 131k|  6 |   3 | 266 | 0.000000e+00 | 1.268065e+01 |    Inf | unknown
 34.4s|   900 |   901 |458777 | 505.8 |   143M |  22 |1364 |1529 |3213 | 148k|  6 |   5 | 276 | 0.000000e+00 | 1.268065e+01 |    Inf | unknown
 37.4s|  1000 |  1001 |509927 | 506.4 |   149M |  22 |1364 |1529 |3170 | 165k|  7 |   7 | 284 | 0.000000e+00 | 1.268065e+01 |    Inf | unknown
 40.1s|  1100 |  1101 |555134 | 501.5 |   158M |  22 |1364 |1529 |2799 | 181k|  2 |   7 | 296 | 0.000000e+00 | 1.268065e+01 |    Inf | unknown
 42.7s|  1200 |  1201 |595637 | 493.4 |   164M |  22 |1364 |1529 |2821 | 195k|  2 |   7 | 305 | 0.000000e+00 | 1.268065e+01 |    Inf | unknown
L43.4s|  1227 |  1228 |605882 | 490.9 |    gins|  22 |1364 |1529 |2747 | 199k|  2 |   7 | 308 | 0.000000e+00 | 1.218939e+01 |    Inf | unknown
 45.4s|  1300 |  1301 |639591 | 489.3 |   171M |  22 |1364 |1529 |2831 | 210k|  2 |   7 | 312 | 0.000000e+00 | 1.218939e+01 |    Inf | unknown
 48.5s|  1400 |  1401 |690791 | 490.9 |   177M |  22 |1364 |1529 |3175 | 225k|  6 |  10 | 314 | 0.000000e+00 | 1.218939e+01 |    Inf | unknown
 51.3s|  1500 |  1501 |733954 | 486.9 |   181M |  22 |1364 |1529 |3246 | 239k|  7 |  13 | 319 | 0.000000e+00 | 1.218939e+01 |    Inf | unknown
 time | node  | left  |LP iter|LP it/n|mem/heur|mdpt |vars |cons |rows |cuts |sepa|confs|strbr|  dualbound   | primalbound  |  gap   | compl. 
 54.1s|  1600 |  1601 |780417 | 485.6 |   186M |  22 |1364 |1529 |3063 | 255k|  7 |  14 | 327 | 0.000000e+00 | 1.218939e+01 |    Inf | unknown
 56.8s|  1700 |  1701 |821988 | 481.4 |   191M |  22 |1364 |1529 |3101 | 268k|  7 |  15 | 338 | 0.000000e+00 | 1.218939e+01 |    Inf | unknown
 59.3s|  1800 |  1801 |861723 | 476.8 |   196M |  23 |1364 |1529 |3113 | 283k|  8 |  16 | 343 | 0.000000e+00 | 1.218939e+01 |    Inf | unknown
 61.9s|  1900 |  1901 |903649 | 473.7 |   201M |  23 |1364 |1529 |3171 | 298k|  5 |  16 | 344 | 0.000000e+00 | 1.218939e+01 |    Inf | unknown
 63.9s|  2000 |  2001 |933009 | 464.7 |   204M |  23 |1364 |1529 |3183 | 309k|  7 |  17 | 350 | 0.000000e+00 | 1.218939e+01 |    Inf | unknown
 66.3s|  2100 |  2099 |970529 | 460.5 |   208M |  23 |1364 |1529 |3093 | 323k|  2 |  19 | 355 | 0.000000e+00 | 1.218939e+01 |    Inf | unknown
 68.8s|  2200 |  2199 |  1012k| 458.4 |   212M |  23 |1364 |1529 |3105 | 338k|  6 |  23 | 361 | 0.000000e+00 | 1.218939e+01 |    Inf | unknown
 71.2s|  2300 |  2299 |  1049k| 454.6 |   218M |  23 |1364 |1529 |3247 | 350k|  6 |  24 | 362 | 0.000000e+00 | 1.218939e+01 |    Inf | unknown
 73.8s|  2400 |  2399 |  1088k| 452.0 |   223M |  23 |1364 |1529 |3021 | 364k|  7 |  25 | 364 | 0.000000e+00 | 1.218939e+01 |    Inf | unknown
 76.4s|  2500 |  2499 |  1130k| 450.8 |   226M |  23 |1364 |1529 |2761 | 379k|  2 |  25 | 366 | 0.000000e+00 | 1.218939e+01 |    Inf | unknown
 78.9s|  2600 |  2599 |  1169k| 448.5 |   232M |  23 |1364 |1529 |3230 | 394k|  6 |  27 | 371 | 0.000000e+00 | 1.218939e+01 |    Inf | unknown
 81.3s|  2700 |  2699 |  1206k| 445.7 |   235M |  23 |1364 |1529 |3208 | 407k|  8 |  30 | 371 | 0.000000e+00 | 1.218939e+01 |    Inf | unknown
 83.7s|  2800 |  2799 |  1244k| 443.2 |   243M |  23 |1364 |1529 |3211 | 420k|  7 |  31 | 372 | 0.000000e+00 | 1.218939e+01 |    Inf | unknown
 86.2s|  2900 |  2899 |  1282k| 441.2 |   245M |  23 |1364 |1529 |3240 | 434k|  7 |  33 | 377 | 0.000000e+00 | 1.218939e+01 |    Inf | unknown
 88.8s|  3000 |  2999 |  1320k| 439.0 |   248M |  23 |1364 |1529 |2950 | 448k|  2 |  34 | 379 | 0.000000e+00 | 1.218939e+01 |    Inf | unknown
 time | node  | left  |LP iter|LP it/n|mem/heur|mdpt |vars |cons |rows |cuts |sepa|confs|strbr|  dualbound   | primalbound  |  gap   | compl. 
 91.2s|  3100 |  3099 |  1356k| 436.3 |   251M |  24 |1364 |1529 |3348 | 461k|  5 |  34 | 380 | 0.000000e+00 | 1.218939e+01 |    Inf | unknown
 93.5s|  3200 |  3199 |  1392k| 433.9 |   256M |  24 |1364 |1529 |3062 | 474k|  5 |  37 | 382 | 0.000000e+00 | 1.218939e+01 |    Inf | unknown
 96.4s|  3300 |  3299 |  1439k| 435.1 |   261M |  24 |1364 |1529 |3233 | 490k|  9 |  39 | 387 | 0.000000e+00 | 1.218939e+01 |    Inf | unknown
 99.0s|  3400 |  3399 |  1479k| 434.1 |   265M |  24 |1364 |1529 |2751 | 504k|  2 |  39 | 389 | 0.000000e+00 | 1.218939e+01 |    Inf | unknown
  102s|  3500 |  3499 |  1515k| 432.1 |   271M |  28 |1364 |1529 |3064 | 517k|  2 |  40 | 389 | 0.000000e+00 | 1.218939e+01 |    Inf | unknown
  104s|  3600 |  3599 |  1552k| 430.1 |   274M |  28 |1364 |1529 |3037 | 530k|  7 |  40 | 389 | 0.000000e+00 | 1.218939e+01 |    Inf | unknown
  107s|  3700 |  3697 |  1585k| 427.4 |   278M |  28 |1364 |1529 |3043 | 543k|  2 |  45 | 393 | 0.000000e+00 | 1.218939e+01 |    Inf | unknown
  109s|  3800 |  3797 |  1622k| 426.1 |   282M |  28 |1364 |1529 |3256 | 557k|  7 |  45 | 395 | 0.000000e+00 | 1.218939e+01 |    Inf | unknown
  111s|  3900 |  3897 |  1658k| 424.3 |   284M |  28 |1364 |1529 |3070 | 570k|  5 |  49 | 395 | 0.000000e+00 | 1.218939e+01 |    Inf | unknown
  114s|  4000 |  3997 |  1694k| 422.7 |   288M |  28 |1364 |1529 |3251 | 584k|  7 |  49 | 395 | 0.000000e+00 | 1.218939e+01 |    Inf | unknown
  116s|  4100 |  4097 |  1722k| 419.4 |   292M |  28 |1364 |1529 |3084 | 596k|  7 |  49 | 396 | 0.000000e+00 | 1.218939e+01 |    Inf | unknown
  118s|  4200 |  4197 |  1759k| 418.2 |   297M |  28 |1364 |1529 |3128 | 610k|  2 |  49 | 397 | 0.000000e+00 | 1.218939e+01 |    Inf | unknown
  121s|  4300 |  4297 |  1795k| 416.7 |   301M |  28 |1364 |1529 |3298 | 623k|  7 |  50 | 398 | 0.000000e+00 | 1.218939e+01 |    Inf | unknown
d 121s|  4323 |  4316 |  1804k| 416.6 |veclendi|  28 |1364 |1529 |2957 | 626k|  2 |  50 | 399 | 0.000000e+00 | 1.201184e+01 |    Inf | unknown
  123s|  4400 |  4393 |  1827k| 414.6 |   304M |  28 |1364 |1529 |3155 | 635k|  7 |  56 | 400 | 3.289717e-05 | 1.201184e+01 |  Large | unknown
 time | node  | left  |LP iter|LP it/n|mem/heur|mdpt |vars |cons |rows |cuts |sepa|confs|strbr|  dualbound   | primalbound  |  gap   | compl. 
  125s|  4500 |  4493 |  1861k| 412.9 |   307M |  28 |1364 |1529 |3208 | 649k|  7 |  56 | 401 | 9.312900e-03 | 1.201184e+01 |  Large | unknown
  128s|  4600 |  4593 |  1896k| 411.5 |   310M |  28 |1364 |1529 |3008 | 662k|  5 |  58 | 403 | 1.032726e-02 | 1.201184e+01 |  Large | unknown
  130s|  4700 |  4691 |  1930k| 409.9 |   315M |  28 |1364 |1529 |3291 | 675k|  2 |  65 | 404 | 2.141408e-02 | 1.201184e+01 |  Large | unknown
o 131s|  4739 |  4665 |  1938k| 408.3 |rootsold|  31 |1364 |1529 |3483 | 679k|  6 |  66 | 404 | 2.141408e-02 | 1.036398e+01 |  Large | unknown
  131s|  4800 |  4712 |  1948k| 405.2 |   316M |  35 |1364 |1529 |3085 | 685k|  6 |  72 | 404 | 2.141408e-02 | 1.036398e+01 |  Large | unknown
  133s|  4900 |  4790 |  1972k| 401.8 |   319M |  35 |1364 |1529 |3161 | 697k|  2 |  73 | 405 | 5.839348e-02 | 1.036398e+01 |  Large | unknown
  135s|  5000 |  4884 |  2003k| 399.9 |   324M |  35 |1364 |1529 |3259 | 710k|  2 |  81 | 405 | 1.055268e-01 | 1.036398e+01 |9721.18%| unknown
  137s|  5100 |  4976 |  2030k| 397.4 |   327M |  35 |1364 |1529 |3231 | 722k|  2 |  87 | 408 | 1.055268e-01 | 1.036398e+01 |9721.18%| unknown
  139s|  5200 |  5046 |  2051k| 393.9 |   332M |  35 |1364 |1529 |2751 | 733k|  2 |  93 | 408 | 1.391897e-01 | 1.036398e+01 |7345.94%| unknown
  141s|  5300 |  5136 |  2083k| 392.4 |   336M |  35 |1364 |1529 |3312 | 747k|  5 |  94 | 408 | 5.083347e-01 | 1.036398e+01 |1938.81%| unknown
  143s|  5400 |  5232 |  2112k| 390.4 |   339M |  35 |1364 |1529 |3169 | 759k|  7 |  97 | 410 | 5.897536e-01 | 1.036398e+01 |1657.34%| unknown
  145s|  5500 |  5320 |  2136k| 387.8 |   343M |  35 |1364 |1529 |3270 | 771k|  9 | 101 | 411 | 5.921740e-01 | 1.036398e+01 |1650.16%| unknown
  146s|  5600 |  5412 |  2161k| 385.3 |   345M |  35 |1364 |1529 |3084 | 783k|  7 | 105 | 413 | 6.102845e-01 | 1.036398e+01 |1598.22%| unknown
  148s|  5700 |  5494 |  2184k| 382.5 |   348M |  35 |1364 |1529 |3237 | 795k|  6 | 107 | 414 | 6.102845e-01 | 1.036398e+01 |1598.22%| unknown
  150s|  5800 |  5580 |  2207k| 380.0 |   350M |  35 |1364 |1529 |3086 | 806k|  2 | 116 | 417 | 6.102845e-01 | 1.036398e+01 |1598.22%| unknown
 time | node  | left  |LP iter|LP it/n|mem/heur|mdpt |vars |cons |rows |cuts |sepa|confs|strbr|  dualbound   | primalbound  |  gap   | compl. 
  152s|  5900 |  5664 |  2230k| 377.4 |   354M |  35 |1364 |1529 |3124 | 817k|  6 | 119 | 417 | 6.102899e-01 | 1.036398e+01 |1598.21%| unknown
  154s|  6000 |  5752 |  2261k| 376.2 |   357M |  35 |1364 |1529 |3244 | 831k|  6 | 122 | 417 | 6.251879e-01 | 1.036398e+01 |1557.74%| unknown
  156s|  6100 |  5836 |  2288k| 374.6 |   363M |  35 |1364 |1529 |3136 | 843k|  5 | 127 | 419 | 6.251879e-01 | 1.036398e+01 |1557.74%| unknown
  158s|  6200 |  5934 |  2323k| 374.2 |   366M |  35 |1364 |1529 |3223 | 858k|  5 | 132 | 419 | 6.755954e-01 | 1.036398e+01 |1434.05%| unknown
  160s|  6300 |  6020 |  2351k| 372.7 |   368M |  35 |1364 |1529 |3145 | 870k|  7 | 135 | 421 | 6.832724e-01 | 1.036398e+01 |1416.81%| unknown
d 161s|  6363 |  6009 |  2362k| 370.8 |fracdivi|  35 |1364 |1529 |3017 | 877k|  2 | 138 | 421 | 6.832724e-01 | 1.010627e+01 |1379.10%| unknown
  161s|  6400 |  6032 |  2369k| 369.7 |   370M |  35 |1364 |1529 |3084 | 880k|  7 | 138 | 422 | 6.832762e-01 | 1.010627e+01 |1379.09%| unknown
  163s|  6500 |  6118 |  2395k| 368.0 |   375M |  35 |1364 |1529 |3265 | 892k|  5 | 140 | 424 | 6.968020e-01 | 1.010627e+01 |1350.38%| unknown
  166s|  6600 |  6210 |  2432k| 368.0 |   378M |  35 |1364 |1529 |3262 | 905k|  6 | 146 | 427 | 6.980972e-01 | 1.010627e+01 |1347.69%| unknown
  167s|  6700 |  6294 |  2459k| 366.5 |   382M |  35 |1364 |1529 |3232 | 917k|  4 | 150 | 428 | 7.903786e-01 | 1.010627e+01 |1178.66%| unknown
  169s|  6800 |  6380 |  2486k| 365.1 |   385M |  35 |1364 |1529 |2792 | 930k|  2 | 155 | 428 | 8.133768e-01 | 1.010627e+01 |1142.51%| unknown
  171s|  6900 |  6466 |  2509k| 363.1 |   388M |  35 |1364 |1529 |3127 | 942k|  7 | 155 | 430 | 8.291659e-01 | 1.010627e+01 |1118.85%| unknown
  173s|  7000 |  6534 |  2527k| 360.6 |   389M |  35 |1364 |1529 |3255 | 952k|  7 | 156 | 430 | 8.325483e-01 | 1.010627e+01 |1113.90%| unknown
  174s|  7100 |  6608 |  2551k| 358.8 |   392M |  35 |1364 |1529 |3242 | 963k|  5 | 158 | 431 | 8.325620e-01 | 1.010627e+01 |1113.88%| unknown
  176s|  7200 |  6686 |  2574k| 357.0 |   393M |  35 |1364 |1529 |3072 | 974k|  6 | 161 | 431 | 8.814887e-01 | 1.010627e+01 |1046.50%| unknown
 time | node  | left  |LP iter|LP it/n|mem/heur|mdpt |vars |cons |rows |cuts |sepa|confs|strbr|  dualbound   | primalbound  |  gap   | compl. 
  178s|  7300 |  6772 |  2599k| 355.7 |   397M |  35 |1364 |1529 |3112 | 986k|  7 | 164 | 431 | 8.815046e-01 | 1.010627e+01 |1046.48%| unknown
  180s|  7400 |  6854 |  2629k| 354.9 |   401M |  35 |1364 |1529 |3117 | 999k|  8 | 168 | 432 | 9.502075e-01 | 1.010627e+01 | 963.59%| unknown
  182s|  7500 |  6940 |  2653k| 353.2 |   404M |  35 |1364 |1529 |3321 |1010k|  6 | 172 | 432 | 9.596600e-01 | 1.010627e+01 | 953.11%| unknown
  183s|  7600 |  7026 |  2677k| 351.8 |   407M |  35 |1364 |1529 |3472 |1022k|  6 | 173 | 433 | 9.733423e-01 | 1.010627e+01 | 938.31%| unknown
  186s|  7700 |  7120 |  2703k| 350.6 |   410M |  35 |1364 |1529 |3572 |1033k|  6 | 174 | 433 | 9.817163e-01 | 1.010627e+01 | 929.45%| unknown
  187s|  7800 |  7196 |  2727k| 349.1 |   417M |  35 |1364 |1529 |3180 |1044k|  6 | 176 | 433 | 1.000164e+00 | 1.010627e+01 | 910.46%| unknown
  189s|  7900 |  7276 |  2751k| 347.8 |   419M |  35 |1364 |1529 |3211 |1055k|  5 | 179 | 433 | 1.018239e+00 | 1.010627e+01 | 892.52%|   7.82%
  191s|  8000 |  7362 |  2775k| 346.5 |   421M |  35 |1364 |1529 |3327 |1067k|  6 | 179 | 433 | 1.023053e+00 | 1.010627e+01 | 887.85%|   7.84%
  192s|  8100 |  7412 |  2790k| 344.1 |   424M |  35 |1364 |1529 |3417 |1076k|  1 | 180 | 438 | 1.023596e+00 | 1.010627e+01 | 887.33%|   7.85%
  194s|  8200 |  7470 |  2808k| 342.0 |   425M |  35 |1364 |1529 |3405 |1086k|  6 | 181 | 439 | 1.110400e+00 | 1.010627e+01 | 810.15%|   7.86%
* 195s|  8300 |  7347 |  2833k| 341.0 |    LP  |  35 |1364 |1529 |3799 |1097k| 10 | 184 | 443 | 1.110427e+00 | 9.714055e+00 | 774.80%|   8.01%
  197s|  8400 |  7423 |  2857k| 339.7 |   431M |  35 |1364 |1529 |3205 |1108k|  9 | 188 | 443 | 1.110429e+00 | 9.714055e+00 | 774.80%|   8.03%
  199s|  8500 |  7495 |  2876k| 338.0 |   432M |  35 |1364 |1529 |3207 |1118k|  5 | 189 | 443 | 1.119586e+00 | 9.714055e+00 | 767.65%|   8.08%
  200s|  8600 |  7559 |  2894k| 336.2 |   434M |  35 |1364 |1529 |3199 |1127k|  5 | 192 | 444 | 1.123711e+00 | 9.714055e+00 | 764.46%|   8.12%
  202s|  8700 |  7621 |  2914k| 334.6 |   436M |  35 |1364 |1529 |3154 |1138k|  6 | 193 | 444 | 1.123734e+00 | 9.714055e+00 | 764.44%|   8.17%
 time | node  | left  |LP iter|LP it/n|mem/heur|mdpt |vars |cons |rows |cuts |sepa|confs|strbr|  dualbound   | primalbound  |  gap   | compl. 
  203s|  8800 |  7705 |  2944k| 334.2 |   439M |  35 |1364 |1529 |3154 |1151k|  2 | 195 | 444 | 1.123736e+00 | 9.714055e+00 | 764.44%|   8.19%
  207s|  8900 |  7795 |  2971k| 333.5 |   441M |  35 |1364 |1529 |3309 |1163k|  5 | 196 | 449 | 1.123736e+00 | 9.714055e+00 | 764.44%|   8.21%
  209s|  9000 |  7877 |  2995k| 332.5 |   443M |  35 |1364 |1529 |3337 |1174k|  5 | 198 | 451 | 1.123736e+00 | 9.714055e+00 | 764.44%|   8.22%
  211s|  9100 |  7953 |  3015k| 331.0 |   446M |  35 |1364 |1529 |3066 |1183k|  2 | 199 | 451 | 1.123736e+00 | 9.714055e+00 | 764.44%|   8.23%
  213s|  9200 |  8037 |  3045k| 330.6 |   449M |  35 |1364 |1529 |3065 |1195k|  6 | 203 | 451 | 1.124975e+00 | 9.714055e+00 | 763.49%|   8.26%
  214s|  9300 |  8125 |  3071k| 329.9 |   451M |  35 |1364 |1529 |3406 |1207k|  7 | 207 | 451 | 1.124975e+00 | 9.714055e+00 | 763.49%|   8.26%
  216s|  9400 |  8179 |  3090k| 328.4 |   454M |  35 |1364 |1529 |3112 |1217k|  1 | 208 | 451 | 1.130479e+00 | 9.714055e+00 | 759.29%|   8.28%
  217s|  9500 |  8255 |  3111k| 327.1 |   459M |  35 |1364 |1529 |3267 |1227k|  7 | 209 | 451 | 1.130492e+00 | 9.714055e+00 | 759.28%|   8.32%
  219s|  9600 |  8333 |  3134k| 326.1 |   463M |  35 |1364 |1529 |3611 |1238k|  5 | 209 | 451 | 1.130492e+00 | 9.714055e+00 | 759.28%|   8.36%
  220s|  9700 |  8385 |  3149k| 324.3 |   469M |  35 |1364 |1529 |3168 |1247k|  1 | 209 | 451 | 1.130492e+00 | 9.714055e+00 | 759.28%|   8.39%
  222s|  9800 |  8459 |  3173k| 323.5 |   470M |  35 |1364 |1529 |3158 |1258k|  1 | 212 | 451 | 1.130493e+00 | 9.714055e+00 | 759.28%|   8.43%
  224s|  9900 |  8541 |  3197k| 322.6 |   472M |  35 |1364 |1529 |3111 |1269k|  7 | 215 | 451 | 1.152005e+00 | 9.714055e+00 | 743.23%|   8.46%
  226s| 10000 |  8623 |  3218k| 321.5 |   476M |  35 |1364 |1529 |3351 |1279k|  7 | 217 | 451 | 1.163845e+00 | 9.714055e+00 | 734.65%|   8.51%
  227s| 10100 |  8699 |  3237k| 320.1 |   477M |  35 |1364 |1529 |3361 |1288k|  1 | 220 | 451 | 1.166481e+00 | 9.714055e+00 | 732.77%|   8.53%
  229s| 10200 |  8785 |  3260k| 319.3 |   481M |  35 |1364 |1529 |3401 |1300k|  3 | 224 | 451 | 1.174449e+00 | 9.714055e+00 | 727.12%|   8.57%
 time | node  | left  |LP iter|LP it/n|mem/heur|mdpt |vars |cons |rows |cuts |sepa|confs|strbr|  dualbound   | primalbound  |  gap   | compl. 
* 230s| 10271 |  8188 |  3275k| 318.6 |    LP  |  35 |1364 |1529 |3790 |1308k| 11 | 226 | 451 | 1.194548e+00 | 9.032364e+00 | 656.13%|   8.87%
  231s| 10300 |  8207 |  3280k| 318.1 |   482M |  35 |1364 |1529 |3298 |1310k|  6 | 226 | 451 | 1.194548e+00 | 9.032364e+00 | 656.13%|   8.89%
  232s| 10400 |  8247 |  3293k| 316.4 |   482M |  35 |1364 |1529 |2899 |1317k|  2 | 232 | 452 | 1.206435e+00 | 9.032364e+00 | 648.68%|   8.91%
  233s| 10500 |  8301 |  3313k| 315.2 |   482M |  35 |1364 |1529 |3158 |1327k|  3 | 236 | 452 | 1.216421e+00 | 9.032364e+00 | 642.54%|   8.97%
  235s| 10600 |  8371 |  3336k| 314.4 |   482M |  35 |1364 |1529 |3212 |1337k|  6 | 242 | 452 | 1.219954e+00 | 9.032364e+00 | 640.39%|   9.03%
  237s| 10700 |  8445 |  3360k| 313.7 |   483M |  35 |1364 |1529 |3206 |1348k|  2 | 246 | 452 | 1.231244e+00 | 9.032364e+00 | 633.60%|   9.05%
  238s| 10800 |  8507 |  3381k| 312.7 |   483M |  35 |1364 |1529 |3299 |1358k|  2 | 248 | 452 | 1.325587e+00 | 9.032364e+00 | 581.39%|   9.07%
  240s| 10900 |  8579 |  3402k| 311.8 |   483M |  35 |1364 |1529 |2881 |1368k|  2 | 253 | 452 | 1.336396e+00 | 9.032364e+00 | 575.87%|   9.10%
  241s| 11000 |  8627 |  3419k| 310.6 |   485M |  35 |1364 |1529 |3255 |1377k|  0 | 260 | 454 | 1.336396e+00 | 9.032364e+00 | 575.87%|   9.14%
  242s| 11100 |  8669 |  3433k| 309.0 |   486M |  37 |1364 |1529 |3062 |1385k|  6 | 263 | 455 | 1.336408e+00 | 9.032364e+00 | 575.87%|   9.17%
  244s| 11200 |  8737 |  3452k| 307.9 |   489M |  37 |1364 |1529 |3102 |1395k|  1 | 268 | 455 | 1.336408e+00 | 9.032364e+00 | 575.87%|   9.20%
  245s| 11300 |  8799 |  3471k| 306.9 |   491M |  37 |1364 |1529 |3036 |1405k|  2 | 270 | 455 | 1.337334e+00 | 9.032364e+00 | 575.40%|   9.25%
  247s| 11400 |  8865 |  3493k| 306.1 |   494M |  37 |1364 |1529 |3169 |1414k|  7 | 276 | 455 | 1.337334e+00 | 9.032364e+00 | 575.40%|   9.28%
  248s| 11500 |  8905 |  3506k| 304.6 |   494M |  37 |1364 |1529 |3161 |1421k|  2 | 283 | 457 | 1.337334e+00 | 9.032364e+00 | 575.40%|   9.30%
  249s| 11600 |  8961 |  3525k| 303.6 |   499M |  37 |1364 |1529 |3269 |1431k|  1 | 285 | 457 | 1.337334e+00 | 9.032364e+00 | 575.40%|   9.43%
 time | node  | left  |LP iter|LP it/n|mem/heur|mdpt |vars |cons |rows |cuts |sepa|confs|strbr|  dualbound   | primalbound  |  gap   | compl. 
  251s| 11700 |  9033 |  3545k| 302.7 |   501M |  37 |1364 |1529 |3209 |1441k|  3 | 288 | 458 | 1.339130e+00 | 9.032364e+00 | 574.49%|   9.46%
  252s| 11800 |  9095 |  3565k| 301.8 |   502M |  37 |1364 |1529 |2971 |1452k|  7 | 292 | 458 | 1.404224e+00 | 9.032364e+00 | 543.23%|   9.50%
  254s| 11900 |  9165 |  3588k| 301.2 |   504M |  37 |1364 |1529 |3099 |1462k|  6 | 295 | 462 | 1.404233e+00 | 9.032364e+00 | 543.22%|   9.55%
  256s| 12000 |  9243 |  3614k| 300.9 |   509M |  37 |1364 |1529 |2914 |1474k|  7 | 297 | 463 | 1.404239e+00 | 9.032364e+00 | 543.22%|   9.57%
  257s| 12100 |  9313 |  3632k| 299.9 |   518M |  37 |1364 |1529 |3076 |1483k|  7 | 302 | 463 | 1.404239e+00 | 9.032364e+00 | 543.22%|   9.60%
  259s| 12200 |  9355 |  3649k| 298.8 |   518M |  37 |1364 |1529 |3223 |1491k|  8 | 311 | 463 | 1.404239e+00 | 9.032364e+00 | 543.22%|   9.67%
  260s| 12300 |  9427 |  3671k| 298.2 |   521M |  37 |1364 |1529 |3284 |1502k|  7 | 314 | 464 | 1.414290e+00 | 9.032364e+00 | 538.65%|   9.71%
  262s| 12400 |  9483 |  3689k| 297.3 |   522M |  37 |1364 |1529 |3103 |1511k|  8 | 316 | 469 | 1.419143e+00 | 9.032364e+00 | 536.47%|   9.75%
  263s| 12500 |  9531 |  3706k| 296.2 |   523M |  37 |1364 |1529 |3235 |1520k|  2 | 320 | 475 | 1.419200e+00 | 9.032364e+00 | 536.44%|   9.76%
  264s| 12600 |  9583 |  3723k| 295.2 |   526M |  37 |1364 |1529 |3119 |1527k|  6 | 322 | 475 | 1.419200e+00 | 9.032364e+00 | 536.44%|   9.78%
  266s| 12700 |  9657 |  3744k| 294.6 |   529M |  37 |1364 |1529 |3069 |1538k|  6 | 324 | 475 | 1.428343e+00 | 9.032364e+00 | 532.37%|   9.81%
  267s| 12800 |  9719 |  3762k| 293.7 |   532M |  37 |1364 |1529 |3308 |1547k|  7 | 327 | 475 | 1.443493e+00 | 9.032364e+00 | 525.73%|   9.82%
  269s| 12900 |  9773 |  3780k| 292.8 |   534M |  37 |1364 |1529 |3287 |1556k|  2 | 329 | 475 | 1.443495e+00 | 9.032364e+00 | 525.73%|   9.87%
  270s| 13000 |  9819 |  3793k| 291.5 |   534M |  37 |1364 |1529 |3355 |1563k|  1 | 333 | 475 | 1.443495e+00 | 9.032364e+00 | 525.73%|   9.91%
  271s| 13100 |  9881 |  3815k| 291.0 |   536M |  37 |1364 |1529 |2946 |1573k|  8 | 334 | 476 | 1.443495e+00 | 9.032364e+00 | 525.73%|   9.94%
 time | node  | left  |LP iter|LP it/n|mem/heur|mdpt |vars |cons |rows |cuts |sepa|confs|strbr|  dualbound   | primalbound  |  gap   | compl. 
  273s| 13200 |  9951 |  3835k| 290.3 |   539M |  37 |1364 |1529 |3071 |1584k|  8 | 336 | 476 | 1.443495e+00 | 9.032364e+00 | 525.73%|   9.95%
  274s| 13300 |  9997 |  3851k| 289.3 |   542M |  37 |1364 |1529 |2911 |1592k|  2 | 338 | 476 | 1.443495e+00 | 9.032364e+00 | 525.73%|   9.96%
  276s| 13400 | 10071 |  3877k| 289.1 |   545M |  37 |1364 |1529 |3269 |1604k|  5 | 341 | 476 | 1.443495e+00 | 9.032364e+00 | 525.73%|   9.96%
  278s| 13500 | 10141 |  3904k| 288.9 |   547M |  37 |1364 |1529 |3107 |1616k|  6 | 349 | 476 | 1.443495e+00 | 9.032364e+00 | 525.73%|   9.97%
  279s| 13600 | 10209 |  3922k| 288.1 |   548M |  37 |1364 |1529 |3207 |1625k|  6 | 352 | 476 | 1.443495e+00 | 9.032364e+00 | 525.73%|   9.98%
  281s| 13700 | 10293 |  3949k| 288.0 |   551M |  37 |1364 |1529 |3223 |1638k|  6 | 360 | 476 | 1.443495e+00 | 9.032364e+00 | 525.73%|   9.98%
  283s| 13800 | 10357 |  3967k| 287.2 |   552M |  37 |1364 |1529 |3252 |1647k|  1 | 364 | 476 | 1.477933e+00 | 9.032364e+00 | 511.15%|  10.01%
  284s| 13900 | 10417 |  3986k| 286.6 |   556M |  37 |1364 |1529 |2869 |1657k|  2 | 366 | 476 | 1.489462e+00 | 9.032364e+00 | 506.42%|  10.04%
  286s| 14000 | 10483 |  4005k| 285.8 |   557M |  37 |1364 |1529 |3075 |1667k|  0 | 370 | 476 | 1.489538e+00 | 9.032364e+00 | 506.39%|  10.08%
  287s| 14100 | 10533 |  4022k| 285.0 |   561M |  37 |1364 |1529 |3420 |1675k|  6 | 370 | 476 | 1.493443e+00 | 9.032364e+00 | 504.80%|  10.11%
  289s| 14200 | 10595 |  4041k| 284.3 |   564M |  37 |1364 |1529 |3341 |1685k|  6 | 375 | 476 | 1.494000e+00 | 9.032364e+00 | 504.58%|  10.22%
  290s| 14300 | 10647 |  4057k| 283.5 |   566M |  37 |1364 |1529 |3488 |1694k|  6 | 377 | 476 | 1.511773e+00 | 9.032364e+00 | 497.47%|  10.25%
  291s| 14400 | 10701 |  4072k| 282.5 |   568M |  37 |1364 |1529 |3130 |1702k|  6 | 381 | 476 | 1.511775e+00 | 9.032364e+00 | 497.47%|  10.27%
  293s| 14500 | 10757 |  4090k| 281.9 |   573M |  37 |1364 |1529 |3452 |1711k|  2 | 386 | 477 | 1.511828e+00 | 9.032364e+00 | 497.45%|  10.34%
* 293s| 14509 | 10111 |  4091k| 281.7 |    LP  |  37 |1364 |1529 |3684 |1712k|  7 | 386 | 477 | 1.511828e+00 | 8.677115e+00 | 473.95%|  10.66%
 time | node  | left  |LP iter|LP it/n|mem/heur|mdpt |vars |cons |rows |cuts |sepa|confs|strbr|  dualbound   | primalbound  |  gap   | compl. 
  294s| 14600 | 10152 |  4108k| 281.1 |   574M |  37 |1364 |1529 |3220 |1720k|  1 | 390 | 477 | 1.514308e+00 | 8.677115e+00 | 473.01%|  10.68%
  295s| 14700 | 10196 |  4122k| 280.2 |   574M |  37 |1364 |1529 |3085 |1728k|  0 | 392 | 479 | 1.519684e+00 | 8.677115e+00 | 470.98%|  10.74%
  296s| 14800 | 10238 |  4135k| 279.2 |   574M |  37 |1364 |1529 |3321 |1735k|  2 | 393 | 480 | 1.519684e+00 | 8.677115e+00 | 470.98%|  10.75%
  298s| 14900 | 10300 |  4158k| 278.9 |   574M |  37 |1364 |1529 |3397 |1744k|  5 | 393 | 480 | 1.525764e+00 | 8.677115e+00 | 468.71%|  10.77%
  299s| 15000 | 10348 |  4175k| 278.1 |   574M |  37 |1364 |1529 |3165 |1752k|  6 | 395 | 480 | 1.537444e+00 | 8.677115e+00 | 464.39%|  10.83%

SCIP Status        : solving was interrupted [time limit reached]
Solving Time (sec) : 300.00
Solving Nodes      : 15063
Primal Bound       : +8.67711537058067e+00 (19 solutions)
Dual Bound         : +1.54494625820545e+00
Gap                : 461.65 %


--- Reading solution for model GAMS_MODEL
***
*** Solver did not provide marginals for model GAMS_MODEL
***
--- Executing after solve: elapsed 0:05:00.598
--- model.gms(5070) 4 Mb
--- model.gms(7371) 6 Mb
--- Putfile results /local/scratch/a/sgusev/repos/k_means/data/gams_scip_gdp.hull_exact/no_mode/2026-02-16_12-40-40/original/results.dat
--- Putfile statresults /local/scratch/a/sgusev/repos/k_means/data/gams_scip_gdp.hull_exact/no_mode/2026-02-16_12-40-40/original/resultsstat.dat
*** Status: Normal completion
--- Job model.gms Stop 02/16/26 12:45:41 elapsed 0:05:00.602
Original problem solved. Time taken: 301.1668634414673 seconds
Original objective value: 8.67711537058067
